% demand
num_movements = 48;
loading_factor = [900, 1100, 1800, 950, 1150, 800, 1400, 950, 1750, 950, 1700, 2000, 800, 1850, 1300, 1500, 850, 1200, 1550, 1250, 1050, 2000, 1000, 1850, 1150, 1050, 1000, 1850, 1700, 1350, 1050, 1050, 1450, 1100, 1850, 1750, 1300, 1450, 900, 1150, 950, 1900, 1500, 1900, 1750, 1300, 1750, 800];
pickup_time = [0, 0, 0, 0, 0, 0, 0, 0, 0, 1, 2, 2, 2, 3, 3, 3, 4, 4, 4, 4, 5, 5, 5, 6, 6, 6, 8, 9, 9, 9, 10, 10, 10, 10, 10, 10, 10, 10, 11, 11, 11, 11, 11, 11, 12, 12, 12, 12];
delivery_time = [1, 2, 2, 2, 2, 2, 2, 2, 5, 2, 8, 4, 5, 4, 5, 4, 5, 10, 5, 5, 10, 10, 9, 10, 8, 9, 9, 10, 10, 10, 11, 11, 11, 11, 11, 11, 11, 11, 12, 12, 12, 13, 12, 12, 13, 13, 13, 13];

% transporter definition
total_capacity = 11000;
num_decks = 4;
capacity = [3000, 3000, 1000, 4000];

% ways out of decks
num_ways_out = 2;
paths_out = array3d(decks, ways_out, decks, [
% ways out of deck d1
2, 4, 0, 0, 3, 4, 0, 0, 

% ways out of deck d2
4, 0, 0, 0, 0, 0, 0, 0,	

% ways out of deck d3
4, 0, 0, 0, 0, 0, 0, 0,	

% ways out of deck d4
0, 0, 0, 0,	0, 0, 0, 0,	

]);

